Problem:    
Rows:       248
Columns:    89 (72 integer, 72 binary)
Non-zeros:  820
Status:     INTEGER OPTIMAL
Objective:  value = 171.6949 (MINimum)

   No.   Row name        Activity     Lower bound   Upper bound
------ ------------    ------------- ------------- -------------
     1 r.5                   2171.69             0               
     2 r.6                  -1970.89      -1973.13               
     3 r.7                   171.695             0               
     4 r.8                  -24.2104      -1958.88               
     5 r.9                   171.695             0               
     6 r.10                  -19.581      -1970.23               
     7 r.11                  2171.69             0               
     8 r.12                 -1904.08       -1956.6               
     9 r.13                  2171.69             0               
    10 r.14                 -1901.08      -1955.63               
    11 r.15                  171.695             0               
    12 r.16                 -1759.91       -1931.6               
    13 r.17                  171.695             0               
    14 r.18                   14.242      -1975.18               
    15 r.19                  2171.69             0               
    16 r.20                 -1960.44       -1961.4               
    17 r.21                  2171.69             0               
    18 r.22                 -1945.44      -1977.55               
    19 r.23                  171.695             0               
    20 r.24                  6.95327      -1965.84               
    21 r.25                  171.695             0               
    22 r.26                 -1756.26      -1927.95               
    23 r.27                  2171.69             0               
    24 r.28                 -1828.31      -1929.23               
    25 r.29                  2171.69             0               
    26 r.30                 -1828.31      -1930.23               
    27 r.31                  171.695             0               
    28 r.32                  100.928      -1929.77               
    29 r.33                  2171.69             0               
    30 r.34                 -1997.76      -1997.76               
    31 r.35                  171.695             0               
    32 r.36                 -1966.76      -1966.76               
    33 r.37                        1             1             = 
    34 r.38                        1             1             = 
    35 r.39                        1             1             = 
    36 r.40                        1             1             = 
    37 r.41                        1             1             = 
    38 r.42                        1             1             = 
    39 r.43                        1             1             = 
    40 r.44                        1             1             = 
    41 r.45                  1948.31       29.7699               
    42 r.46                 -1945.31      -1973.13               
    43 r.47                  123.134       43.4002               
    44 r.48                 -126.134      -1958.88               
    45 r.49                  66.8138        44.366               
    46 r.50                 -66.8138      -1973.13               
    47 r.51                  267.305       68.3996               
    48 r.52                 -267.305      -1958.88               
    49 r.53                  1976.13        24.823               
    50 r.54                 -1970.13      -1973.13               
    51 r.55                  72.7685       38.6048               
    52 r.56                 -78.7685      -1958.88               
    53 r.57                  22.4478       22.4478               
    54 r.58                 -22.4478      -1973.13               
    55 r.59                  34.1636       34.1636               
    56 r.60                 -34.1636      -1958.88               
    57 r.61                 -1788.37      -1924.95               
    58 r.62                 -1860.42      -1926.23               
    59 r.63                 -1729.05      -1924.95               
    60 r.64                 -1801.09      -1926.23               
    61 r.65                  139.585       69.7708               
    62 r.66                 -139.585      -1973.13               
    63 r.67                  128.138       70.2313               
    64 r.68                 -128.138      -1958.88               
    65 r.69                 -1970.13      -1970.13               
    66 r.70                 -29.4524      -1955.88               
    67 r.71                  -1.1266      -1970.13               
    68 r.72                  1939.55      -1955.88               
    69 r.73                  51.6913       26.8683               
    70 r.74                 -54.6913      -1970.23               
    71 r.75                  1876.87       41.1158               
    72 r.76                 -1873.87       -1956.6               
    73 r.77                  121.505        44.366               
    74 r.78                 -121.505      -1970.23               
    75 r.79                   141.17       68.3996               
    76 r.80                  -141.17       -1956.6               
    77 r.81                   30.823        24.823               
    78 r.82                  -24.823      -1970.23               
    79 r.83                  1946.63       38.6048               
    80 r.84                 -1952.63       -1956.6               
    81 r.85                  77.1391       22.4478               
    82 r.86                 -77.1391      -1970.23               
    83 r.87                  1908.03       34.1636               
    84 r.88                 -1908.03       -1956.6               
    85 r.89                  266.325       72.0493               
    86 r.90                 -266.325      -1970.23               
    87 r.91                  72.7708       70.7674               
    88 r.92                 -72.7708       -1956.6               
    89 r.93                 -1805.72      -1927.23               
    90 r.94                  123.509      -1926.77               
    91 r.95                 -1927.23      -1927.23               
    92 r.96                   2.0034      -1926.77               
    93 r.97                  -24.823      -1967.23               
    94 r.98                 -1903.32       -1953.6               
    95 r.99                  1944.18      -1967.23               
    96 r.100                 65.6872       -1953.6               
    97 r.101                 1930.19       26.8683               
    98 r.102                -1933.19      -1955.63               
    99 r.103                  1735.7       41.1158               
   100 r.104                 -1732.7       -1931.6               
   101 r.105                 1881.49       29.7699               
   102 r.106                -1878.49      -1955.63               
   103 r.107                 1855.83       43.4002               
   104 r.108                -1858.83       -1931.6               
   105 r.109                -1903.32      -1952.63               
   106 r.110                -1762.15       -1928.6               
   107 r.111                -1952.63      -1952.63               
   108 r.112                -1811.46       -1928.6               
   109 r.113                 1955.63       22.4478               
   110 r.114                -1955.63      -1955.63               
   111 r.115                 1766.86       34.1636               
   112 r.116                -1766.86       -1931.6               
   113 r.117                  144.82       72.0493               
   114 r.118                 -144.82      -1955.63               
   115 r.119                  1931.6       70.7674               
   116 r.120                 -1931.6       -1931.6               
   117 r.121                -1927.23      -1927.23               
   118 r.122                  2.0034      -1926.77               
   119 r.123                -68.3996      -1927.23               
   120 r.124                 1860.83      -1926.77               
   121 r.125                -1903.32      -1952.63               
   122 r.126                -1762.15       -1928.6               
   123 r.127                 65.6872      -1952.63               
   124 r.128                 206.858       -1928.6               
   125 r.129                 26.8683       26.8683               
   126 r.130                -29.8683      -1975.18               
   127 r.131                 1924.23       41.1158               
   128 r.132                -1921.23       -1961.4               
   129 r.133                 1978.18       29.7699               
   130 r.134                -1975.18      -1975.18               
   131 r.135                  44.366       43.4002               
   132 r.136                 -47.366       -1961.4               
   133 r.137                -1903.32      -1952.63               
   134 r.138                -1762.15       -1928.6               
   135 r.139                -1952.63      -1952.63               
   136 r.140                -1811.46       -1928.6               
   137 r.141                 52.3161       22.4478               
   138 r.142                -52.3161      -1975.18               
   139 r.143                  1955.4       34.1636               
   140 r.144                 -1955.4       -1961.4               
   141 r.145                 241.502       72.0493               
   142 r.146                -241.502      -1975.18               
   143 r.147                 120.137       70.7674               
   144 r.148                -120.137       -1961.4               
   145 r.149                -1830.55      -1927.23               
   146 r.150                 98.6855      -1926.77               
   147 r.151                -1879.86      -1927.23               
   148 r.152                 49.3694      -1926.77               
   149 r.153                       0      -1969.18               
   150 r.154                -1950.68       -1955.4               
   151 r.155                 1969.01      -1969.18               
   152 r.156                 18.3212       -1955.4               
   153 r.157                 1974.55       26.8683               
   154 r.158                -1977.55      -1977.55               
   155 r.159                 1968.84       41.1158               
   156 r.160                -1965.84      -1965.84               
   157 r.161                 1925.86       29.7699               
   158 r.162                -1922.86      -1977.55               
   159 r.163                 88.9708       43.4002               
   160 r.164                -91.9708      -1965.84               
   161 r.165                  44.366        44.366               
   162 r.166                 -44.366      -1977.55               
   163 r.167                 233.141       68.3996               
   164 r.168                -233.141      -1965.84               
   165 r.169                 1953.68        24.823               
   166 r.170                -1947.68      -1977.55               
   167 r.171                 38.6048       38.6048               
   168 r.172                -44.6048      -1965.84               
   169 r.173                -1810.81      -1924.95               
   170 r.174                -1882.86      -1926.23               
   171 r.175                -1763.21      -1924.95               
   172 r.176                -1835.26      -1926.23               
   173 r.177                -1882.86      -1927.23               
   174 r.178                 46.3694      -1926.77               
   175 r.179                -1835.26      -1927.23               
   176 r.180                 93.9742      -1926.77               
   177 r.181                -1947.68      -1971.55               
   178 r.182                 4.71127      -1959.84               
   179 r.183                 21.3212      -1971.55               
   180 r.184                 1973.72      -1959.84               
   181 r.185                -1788.37      -1924.95               
   182 r.186                -1860.42      -1926.23               
   183 r.187                -1729.05      -1924.95               
   184 r.188                -1801.09      -1926.23               
   185 r.189                 1736.67       29.7699               
   186 r.190                -1733.67      -1927.95               
   187 r.191                 1924.23       43.4002               
   188 r.192                -1927.23      -1929.23               
   189 r.193                 1855.18        44.366               
   190 r.194                -1855.18      -1927.95               
   191 r.195                 68.3996       68.3996               
   192 r.196                -68.3996      -1929.23               
   193 r.197                  1764.5        24.823               
   194 r.198                 -1758.5      -1927.95               
   195 r.199                 1873.86       38.6048               
   196 r.200                -1879.86      -1929.23               
   197 r.201                -1810.81      -1924.95               
   198 r.202                -1882.86      -1926.23               
   199 r.203                -1763.21      -1924.95               
   200 r.204                -1835.26      -1926.23               
   201 r.205                 1927.95       69.7708               
   202 r.206                -1927.95      -1927.95               
   203 r.207                 1929.23       70.2313               
   204 r.208                -1929.23      -1929.23               
   205 r.209                 1857.42       26.8683               
   206 r.210                -1860.42      -1930.23               
   207 r.211                 1874.86       41.1158               
   208 r.212                -1871.86      -1929.77               
   209 r.213                -1805.72      -1927.23               
   210 r.214                 123.509      -1926.77               
   211 r.215                -1927.23      -1927.23               
   212 r.216                  2.0034      -1926.77               
   213 r.217                -1927.23      -1927.23               
   214 r.218                  2.0034      -1926.77               
   215 r.219                -68.3996      -1927.23               
   216 r.220                 1860.83      -1926.77               
   217 r.221                -1830.55      -1927.23               
   218 r.222                 98.6855      -1926.77               
   219 r.223                -1879.86      -1927.23               
   220 r.224                 49.3694      -1926.77               
   221 r.225                -1882.86      -1927.23               
   222 r.226                 46.3694      -1926.77               
   223 r.227                -1835.26      -1927.23               
   224 r.228                 93.9742      -1926.77               
   225 r.229                 72.0493       72.0493               
   226 r.230                -72.0493      -1930.23               
   227 r.231                 70.7674       70.7674               
   228 r.232                -70.7674      -1929.77               
   229 r.233                -1970.13      -1970.13               
   230 r.234                -29.4524      -1955.88               
   231 r.235                 -1.1266      -1970.13               
   232 r.236                 1939.55      -1955.88               
   233 r.237                 -24.823      -1967.23               
   234 r.238                -1903.32       -1953.6               
   235 r.239                 1944.18      -1967.23               
   236 r.240                 65.6872       -1953.6               
   237 r.241                -1903.32      -1952.63               
   238 r.242                -1762.15       -1928.6               
   239 r.243                 65.6872      -1952.63               
   240 r.244                 206.858       -1928.6               
   241 r.245                       0      -1969.18               
   242 r.246                -1950.68       -1955.4               
   243 r.247                 1969.01      -1969.18               
   244 r.248                 18.3212       -1955.4               
   245 r.249                -1947.68      -1971.55               
   246 r.250                 4.71127      -1959.84               
   247 r.251                 21.3212      -1971.55               
   248 r.252                 1973.72      -1959.84               

   No. Column name       Activity     Lower bound   Upper bound
------ ------------    ------------- ------------- -------------
     1 tt                    171.695             0               
     2 s_1_1        *              1             0             1 
     3 t_1_1                 139.585             0               
     4 s_1_6        *              0             0             1 
     5 s_2_1        *              0             0             1 
     6 t_2_1                 198.905             0               
     7 s_2_6        *              1             0             1 
     8 s_1_2        *              0             0             1 
     9 t_1_2                 194.276             0               
    10 s_1_7        *              1             0             1 
    11 s_2_2        *              1             0             1 
    12 t_2_2                 72.7708             0               
    13 s_2_7        *              0             0             1 
    14 s_1_3        *              1             0             1 
    15 t_1_3                 72.7708             0               
    16 s_2_3        *              0             0             1 
    17 t_2_3                  1931.6             0               
    18 s_1_4        *              0             0             1 
    19 t_1_4                 169.453             0               
    20 s_2_4        *              1             0             1 
    21 t_2_4                 120.137             0               
    22 s_1_5        *              1             0             1 
    23 t_1_5                 117.137             0               
    24 s_2_5        *              0             0             1 
    25 t_2_5                 164.742             0               
    26 t_1_6                 1927.95             0               
    27 t_2_6                       0             0               
    28 t_1_7                       0             0               
    29 t_2_7                 70.7674             0               
    30 s_1_8        *              1             0             1 
    31 t_1_8                 169.453             0               
    32 s_2_8        *              0             0             1 
    33 t_2_8                 2138.46             0               
    34 u_1_1_2      *              1             0             1 
    35 u_2_1_2      *              0             0             1 
    36 u_1_1_3      *              0             0             1 
    37 u_2_1_3      *              1             0             1 
    38 u_1_1_4      *              1             0             1 
    39 u_2_1_4      *              0             0             1 
    40 u_1_1_5      *              0             0             1 
    41 u_2_1_5      *              0             0             1 
    42 u_1_1_7      *              0             0             1 
    43 u_2_1_7      *              0             0             1 
    44 u_1_2_1      *              0             0             1 
    45 u_2_2_1      *              1             0             1 
    46 u_1_2_3      *              0             0             1 
    47 u_2_2_3      *              1             0             1 
    48 u_1_2_4      *              0             0             1 
    49 u_2_2_4      *              1             0             1 
    50 u_1_2_5      *              0             0             1 
    51 u_2_2_5      *              1             0             1 
    52 u_1_2_6      *              1             0             1 
    53 u_2_2_6      *              0             0             1 
    54 u_1_3_1      *              1             0             1 
    55 u_2_3_1      *              0             0             1 
    56 u_1_3_2      *              1             0             1 
    57 u_2_3_2      *              0             0             1 
    58 u_1_3_5      *              1             0             1 
    59 u_2_3_5      *              0             0             1 
    60 u_1_3_6      *              1             0             1 
    61 u_2_3_6      *              0             0             1 
    62 u_1_4_1      *              0             0             1 
    63 u_2_4_1      *              1             0             1 
    64 u_1_4_2      *              1             0             1 
    65 u_2_4_2      *              0             0             1 
    66 u_1_4_5      *              0             0             1 
    67 u_2_4_5      *              1             0             1 
    68 u_1_4_6      *              1             0             1 
    69 u_2_4_6      *              0             0             1 
    70 u_1_5_1      *              1             0             1 
    71 u_2_5_1      *              1             0             1 
    72 u_1_5_2      *              1             0             1 
    73 u_2_5_2      *              0             0             1 
    74 u_1_5_3      *              0             0             1 
    75 u_2_5_3      *              1             0             1 
    76 u_1_5_4      *              1             0             1 
    77 u_2_5_4      *              0             0             1 
    78 u_1_6_2      *              0             0             1 
    79 u_2_6_2      *              1             0             1 
    80 u_1_6_3      *              0             0             1 
    81 u_2_6_3      *              1             0             1 
    82 u_1_6_4      *              0             0             1 
    83 u_2_6_4      *              1             0             1 
    84 u_1_6_7      *              0             0             1 
    85 u_2_6_7      *              1             0             1 
    86 u_1_7_1      *              1             0             1 
    87 u_2_7_1      *              1             0             1 
    88 u_1_7_6      *              1             0             1 
    89 u_2_7_6      *              0             0             1 

Integer feasibility conditions:

KKT.PE: max.abs.err = 4.55e-13 on row 47
        max.rel.err = 1.10e-16 on row 208
        High quality

KKT.PB: max.abs.err = 2.27e-13 on row 156
        max.rel.err = 3.64e-15 on row 55
        High quality

End of output
